[[93, 92, 91, 82, 83, 73, 84, 75, 76, 85, 77, 68, 67, 66, 74, 65, 64], [55, 56, 57, 58, 59, 49, 47, 46, 48, 39, 40, 38, 37, 28, 29, 30, 31, 19, 20, 21, 22, 13], [11, 10, 2, 12, 3, 4, 14, 5, 6, 7, 8, 9, 18, 17, 16, 15, 23, 24], [25, 26, 27, 35, 36, 44, 45, 34, 43, 33, 32, 41, 42, 50, 51, 60, 52, 53, 54, 61, 62, 63], [72, 81, 71, 80, 70, 69, 78, 79, 88, 89, 90, 99, 98, 97, 96, 87, 86, 95, 94]]